\ENCODING=ISO-8859-1
\Problem name: Configuration1

Minimize
 obj1: 5 T(1)(1) + 9 T(1)(2) + 3 T(1)(3) + 6 T(1)(4) + 8 T(2)(1) + 7 T(2)(2)
       + 8 T(2)(3) + 2 T(2)(4) + 6 T(3)(1) + 10 T(3)(2) + 12 T(3)(3)
       + 7 T(3)(4) + 3 T(4)(1) + 10 T(4)(2) + 8 T(4)(3) + 6 T(4)(4)
Subject To
 c1: T(1)(1) + T(1)(2) + T(1)(3) + T(1)(4)  = 1
 c2: T(2)(1) + T(2)(2) + T(2)(3) + T(2)(4)  = 1
 c3: T(3)(1) + T(3)(2) + T(3)(3) + T(3)(4)  = 1
 c4: T(4)(1) + T(4)(2) + T(4)(3) + T(4)(4)  = 1
 c5: T(1)(1) + T(2)(1) + T(3)(1) + T(4)(1)  = 1
 c6: T(1)(2) + T(2)(2) + T(3)(2) + T(4)(2)  = 1
 c7: T(1)(3) + T(2)(3) + T(3)(3) + T(4)(3)  = 1
 c8: T(1)(4) + T(2)(4) + T(3)(4) + T(4)(4)  = 1
Bounds
 0 <= T(1)(1) <= 1
 0 <= T(1)(2) <= 1
 0 <= T(1)(3) <= 1
 0 <= T(1)(4) <= 1
 0 <= T(2)(1) <= 1
 0 <= T(2)(2) <= 1
 0 <= T(2)(3) <= 1
 0 <= T(2)(4) <= 1
 0 <= T(3)(1) <= 1
 0 <= T(3)(2) <= 1
 0 <= T(3)(3) <= 1
 0 <= T(3)(4) <= 1
 0 <= T(4)(1) <= 1
 0 <= T(4)(2) <= 1
 0 <= T(4)(3) <= 1
 0 <= T(4)(4) <= 1
Binaries
 T(1)(1)  T(1)(2)  T(1)(3)  T(1)(4)  T(2)(1)  T(2)(2)  T(2)(3)  T(2)(4) 
 T(3)(1)  T(3)(2)  T(3)(3)  T(3)(4)  T(4)(1)  T(4)(2)  T(4)(3)  T(4)(4) 
End
